objective value:                 0.000855577290999542
x_1_2                                               1 	(obj:0)
x_2_1                                               1 	(obj:0)
x_3_2                                               1 	(obj:0)
x_4_3                                               1 	(obj:0)
x_5_3                                               1 	(obj:0)
x_6_1                               0.999999999999993 	(obj:0)
x_7_1                                               1 	(obj:0)
x_8_2                                               1 	(obj:0)
x_9_3                                               1 	(obj:0)
x_10_3                                              1 	(obj:0)
x_11_2                                              1 	(obj:0)
x_12_2                                              1 	(obj:0)
x_13_1                                              1 	(obj:0)
x_14_1                                              1 	(obj:0)
x_15_3                                              1 	(obj:0)
x_16_2                                              1 	(obj:0)
x_17_1                                              1 	(obj:0)
x_18_1                                              1 	(obj:0)
x_19_2                                              1 	(obj:0)
x_20_2                                              1 	(obj:0)
ind_1                                               1 	(obj:0)
abs_1_2                                             1 	(obj:0)
ind_2                                               1 	(obj:0)
abs_2_3                                             1 	(obj:0)
ind_3                                               1 	(obj:0)
abs_3_1                                             1 	(obj:0)
epsI                             0.000855577290999542 	(obj:1)
prodt_x_19_2_t_x_20_2_coh_2                         1 	(obj:0)
prodt_x_1_2_t_x_2_1_more_coh_1           0.1312499945 	(obj:0)
prodt_x_2_1_t_x_3_1_more_coh_1       6.07124488499999 	(obj:0)
prodt_x_6_1_t_x_7_1_more_coh_1       4.64982307799995 	(obj:0)
prodt_x_7_1_t_x_9_1_more_coh_1           3.7412080965 	(obj:0)
prodt_x_13_1_t_x_15_1_more_coh_1         3.5491801555 	(obj:0)
prodt_x_14_1_t_x_15_1_more_coh_1         0.7601702575 	(obj:0)
prodt_x_17_1_t_x_18_1_more_coh_1         1.1728251137 	(obj:0)
prodt_x_1_2_t_x_2_2_more_coh_2           3.8636458831 	(obj:0)
prodt_x_3_2_t_x_4_2_more_coh_2           3.1505835339 	(obj:0)
prodt_x_8_2_t_x_11_2_more_coh_2          3.2109427366 	(obj:0)
prodt_x_11_2_t_x_12_2_more_coh_2         2.4279473805 	(obj:0)
prodt_x_12_2_t_x_13_2_more_coh_2         2.5317248196 	(obj:0)
prodt_x_16_2_t_x_17_2_more_coh_2          1.078418648 	(obj:0)
prodt_x_4_3_t_x_5_3_more_coh_3           2.9473050483 	(obj:0)
prodt_x_5_3_t_x_6_3_more_coh_3           2.6787153621 	(obj:0)
prodt_x_9_3_t_x_14_3_more_coh_3          2.2846912119 	(obj:0)
prodt_x_10_3_t_x_11_3_more_coh_3         1.8523510216 	(obj:0)
prodt_x_1_2_t_x_2_2_more_irrev1_2_1     2.66511511081428 	(obj:0)
prodt_x_2_1_t_x_4_2_more_irrev1_2_1    0.651313053871551 	(obj:0)
prodt_x_3_2_t_x_4_1_more_irrev1_2_1     3.53242630330552 	(obj:0)
prodt_x_6_1_t_x_7_2_more_irrev1_2_1     3.73517395938317 	(obj:0)
prodt_x_7_1_t_x_8_2_more_irrev1_2_1    0.358930790000001 	(obj:0)
prodt_x_8_2_t_x_9_1_more_irrev1_2_1     1.32345028929274 	(obj:0)
prodt_x_11_2_t_x_13_1_more_irrev1_2_1     2.84266724408303 	(obj:0)
prodt_x_12_2_t_x_13_1_more_irrev1_2_1    0.314680409999999 	(obj:0)
prodt_x_13_1_t_x_14_2_more_irrev1_2_1    0.867090360418187 	(obj:0)
prodt_x_14_1_t_x_16_2_more_irrev1_2_1     2.21243431308253 	(obj:0)
prodt_x_16_2_t_x_19_1_more_irrev1_2_1    0.580381499164976 	(obj:0)
prodt_x_17_1_t_x_20_2_more_irrev1_2_1      0.1429517014402 	(obj:0)
prodt_x_18_1_t_x_19_2_more_irrev1_2_1     1.74780256334772 	(obj:0)
prodt_x_1_2_t_x_2_2_more_irrev2_2_1    -2.66511511081428 	(obj:0)
prodt_x_2_1_t_x_4_2_more_irrev2_2_1   -0.651313053871652 	(obj:0)
prodt_x_3_2_t_x_4_1_more_irrev2_2_1    -3.53242630330552 	(obj:0)
prodt_x_6_1_t_x_7_2_more_irrev2_2_1    -3.73517395938322 	(obj:0)
prodt_x_7_1_t_x_8_2_more_irrev2_2_1   -0.358930790000035 	(obj:0)
prodt_x_8_2_t_x_9_1_more_irrev2_2_1    -1.32345028929274 	(obj:0)
prodt_x_11_2_t_x_13_1_more_irrev2_2_1    -2.84266724408303 	(obj:0)
prodt_x_12_2_t_x_13_1_more_irrev2_2_1   -0.314680409999999 	(obj:0)
prodt_x_13_1_t_x_14_2_more_irrev2_2_1   -0.867090360418187 	(obj:0)
prodt_x_14_1_t_x_16_2_more_irrev2_2_1    -2.21243431308253 	(obj:0)
prodt_x_16_2_t_x_19_1_more_irrev2_2_1   -0.580381499164976 	(obj:0)
prodt_x_17_1_t_x_20_2_more_irrev2_2_1     -0.1429517014402 	(obj:0)
prodt_x_18_1_t_x_19_2_more_irrev2_2_1     1.74780256334772 	(obj:0)
prodt_x_1_2_t_x_2_3_more_irrev1_3_1    -2.66156000501246 	(obj:0)
prodt_x_2_1_t_x_4_3_more_irrev1_3_1    -2.43048495786004 	(obj:0)
prodt_x_4_3_t_x_7_1_more_irrev1_3_1    -2.21450902999999 	(obj:0)
prodt_x_5_3_t_x_7_1_more_irrev1_3_1   -0.659973903191553 	(obj:0)
prodt_x_6_1_t_x_7_3_more_irrev1_3_1    -1.07319226150917 	(obj:0)
prodt_x_7_1_t_x_8_3_more_irrev1_3_1    -1.57397646999999 	(obj:0)
prodt_x_9_3_t_x_11_1_more_irrev1_3_1   -0.763517613669614 	(obj:0)
prodt_x_10_3_t_x_12_1_more_irrev1_3_1    -2.43190765015097 	(obj:0)
prodt_x_13_1_t_x_14_3_more_irrev1_3_1                   -1 	(obj:0)
prodt_x_14_1_t_x_16_3_more_irrev1_3_1   -0.037994946646271 	(obj:0)
prodt_x_15_3_t_x_16_1_more_irrev1_3_1    -1.42999268580126 	(obj:0)
prodt_x_1_2_t_x_2_3_more_irrev2_3_1     2.66156000501246 	(obj:0)
prodt_x_2_1_t_x_4_3_more_irrev2_3_1     2.43048495786032 	(obj:0)
prodt_x_4_3_t_x_7_1_more_irrev2_3_1     2.21450902999999 	(obj:0)
prodt_x_5_3_t_x_7_1_more_irrev2_3_1    0.659973903191553 	(obj:0)
prodt_x_6_1_t_x_7_3_more_irrev2_3_1     1.07319226150911 	(obj:0)
prodt_x_7_1_t_x_8_3_more_irrev2_3_1     1.57397646999999 	(obj:0)
prodt_x_9_3_t_x_11_1_more_irrev2_3_1    0.763517613669614 	(obj:0)
prodt_x_10_3_t_x_12_1_more_irrev2_3_1     2.43190765015097 	(obj:0)
prodt_x_13_1_t_x_14_3_more_irrev2_3_1                    1 	(obj:0)
prodt_x_14_1_t_x_16_3_more_irrev2_3_1    0.037994946646271 	(obj:0)
prodt_x_15_3_t_x_16_1_more_irrev2_3_1     1.42999268580126 	(obj:0)
prodt_x_1_2_t_x_2_3_more_irrev1_3_2     2.66156000501246 	(obj:0)
prodt_x_3_2_t_x_4_3_more_irrev1_3_2    0.336625764120029 	(obj:0)
prodt_x_4_3_t_x_7_2_more_irrev1_3_2            1.1125517 	(obj:0)
prodt_x_5_3_t_x_7_2_more_irrev1_3_2     2.86860843410314 	(obj:0)
prodt_x_8_2_t_x_9_3_more_irrev1_3_2     1.69941256943197 	(obj:0)
prodt_x_9_3_t_x_11_2_more_irrev1_3_2     2.79947492384941 	(obj:0)
prodt_x_10_3_t_x_12_2_more_irrev1_3_2    0.812764103372021 	(obj:0)
prodt_x_11_2_t_x_13_3_more_irrev1_3_2    0.189241976746254 	(obj:0)
prodt_x_12_2_t_x_14_3_more_irrev1_3_2    0.753536119999995 	(obj:0)
prodt_x_15_3_t_x_16_2_more_irrev1_3_2     1.69210050623444 	(obj:0)
prodt_x_1_2_t_x_2_3_more_irrev2_3_2    -2.66156000501246 	(obj:0)
prodt_x_3_2_t_x_4_3_more_irrev2_3_2   -0.336625764120011 	(obj:0)
prodt_x_4_3_t_x_7_2_more_irrev2_3_2    -1.11255170000008 	(obj:0)
prodt_x_5_3_t_x_7_2_more_irrev2_3_2    -2.86860843410297 	(obj:0)
prodt_x_8_2_t_x_9_3_more_irrev2_3_2    -1.69941256943197 	(obj:0)
prodt_x_9_3_t_x_11_2_more_irrev2_3_2    -2.79947492384942 	(obj:0)
prodt_x_10_3_t_x_12_2_more_irrev2_3_2   -0.812764103372022 	(obj:0)
prodt_x_11_2_t_x_13_3_more_irrev2_3_2   -0.189241976746254 	(obj:0)
prodt_x_12_2_t_x_14_3_more_irrev2_3_2   -0.753536119999995 	(obj:0)
prodt_x_15_3_t_x_16_2_more_irrev2_3_2    -1.69210050623444 	(obj:0)
SCIP Status        : solving was interrupted [time limit reached]
Total Time         :    3600.00
  solving          :    3600.00
  presolving       :       0.05 (included in solving)
  reading          :       0.00
  copying          :       1.22 (138 #copies) (minimal 0.00, maximal 0.02, average 0.01)
Original Problem   :
  Problem name     : ../instances/Pot4/Pot4_T_20B_alpha=8.txt.spa
  Variables        : 101 (100 binary, 0 integer, 0 implicit integer, 1 continuous)
  Constraints      : 193 initial, 193 maximal
  Objective sense  : maximize
Presolved Problem  :
  Problem name     : t_../instances/Pot4/Pot4_T_20B_alpha=8.txt.spa
  Variables        : 590 (92 binary, 0 integer, 16 implicit integer, 482 continuous)
  Constraints      : 2015 initial, 6659 maximal
Presolvers         :   ExecTime  SetupTime  Calls  FixedVars   AggrVars   ChgTypes  ChgBounds   AddHoles    DelCons    AddCons   ChgSides   ChgCoefs
  boundshift       :       0.00       0.00      0          0          0          0          0          0          0          0          0          0
  components       :       0.00       0.00      1          0          0          0          0          0          0          0          0          0
  convertinttobin  :       0.00       0.00      0          0          0          0          0          0          0          0          0          0
  domcol           :       0.00       0.00      1          0          0          0          0          0          0          0          0          0
  dualagg          :       0.00       0.00      0          0          0          0          0          0          0          0          0          0
  dualinfer        :       0.00       0.00      0          0          0          0          0          0          0          0          0          0
  gateextraction   :       0.00       0.00      3          0          0          0          0          0        108         34          0          0
  implfree         :       0.00       0.00      0          0          0          0          0          0          0          0          0          0
  implics          :       0.00       0.00      4          0          0          0          0          0          0          0          0          0
  inttobinary      :       0.00       0.00      0          0          0          0          0          0          0          0          0          0
  redvub           :       0.00       0.00      0          0          0          0          0          0          0          0          0          0
  stuffing         :       0.00       0.00      1          0          0          0          0          0          0          0          0          0
  trivial          :       0.00       0.00      7          0          0          0          0          0          0          0          0          0
  tworowbnd        :       0.00       0.00      0          0          0          0          0          0          0          0          0          0
  dualfix          :       0.00       0.00      7          4          0          0          0          0          0          0          0          0
  genvbounds       :       0.00       0.00      0          0          0          0          0          0          0          0          0          0
  probing          :       0.03       0.00      1          0          0          0          4          0          0          0          0          0
  pseudoobj        :       0.00       0.00      0          0          0          0          0          0          0          0          0          0
  varbound         :       0.00       0.00      9          0          0          0          0          0         28         28          0          0
  setppc           :       0.01       0.00     12          0          0          0          0          0          0          0          0          0
  and              :       0.00       0.00      4          0         12          0          0          0         12          0          0          0
  linear           :       0.00       0.00      9          3          1          0          4          0          7          0         12         12
  logicor          :       0.00       0.00      7          0          0          0          0          0          0          0          0          0
  bounddisjunction :       0.00       0.00      0          0          0          0          0          0          0          0          0          0
  quadratic        :       0.01       0.00      2          0          0          0          0          0          0       1915          0          0
  root node        :          -          -      -          1          -          -         83          -          -          -          -          -
Constraints        :     Number  MaxNumber  #Separate #Propagate    #EnfoLP    #EnfoPS     #Check   #ResProp    Cutoffs    DomReds       Cuts    Applied      Conss   Children
  integral         :          0          0          0          0    2104460          0     463388          0          0      53878          0          0        114    4190710
  varbound         :        869        869         86   12683044       4346          1     164068    4267912      66944   85649953          0          0          0          0
  setppc           :        110+       160         86   12615405       4342          1       1809    2243370      14467    5363052         10          0          0          0
  and              :         22         22     125853     701805        517          0       1415     359405         11      68294        529        512          0          0
  linear           :        979        979         86   12601632       4334          0       1360    2090837     219126  122111107     187886     187660          0          0
  logicor          :         35+       747         80    3410641          0          0          0      78098       2817     113799          1          1          0          0
  bounddisjunction :          0+      4064          0    5479093          0          0          0     444699       8166    6515029          0          0          0          0
  countsols        :          0          0          0          0          7          1     299000          0          0          0          0          0          0          0
Constraint Timings :  TotalTime  SetupTime   Separate  Propagate     EnfoLP     EnfoPS      Check    ResProp    SB-Prop
  integral         :      18.93       0.00       0.00       0.00      18.88       0.00       0.05       0.00       0.00
  varbound         :      67.67       0.00       0.00      65.93       0.01       0.00       0.80       0.78       0.15
  setppc           :      46.00       0.00       0.00      45.30       0.00       0.00       0.02       0.56       0.12
  and              :       0.20       0.00       0.00       0.10       0.00       0.00       0.00       0.10       0.00
  linear           :     186.08       0.00       0.00     184.27       0.11       0.00       0.00       1.36       0.34
  logicor          :      18.99       0.00       0.00      18.98       0.00       0.00       0.00       0.00       0.01
  bounddisjunction :     130.87       0.00       0.00     130.71       0.00       0.00       0.00       0.12       0.04
  countsols        :       0.00       0.00       0.00       0.00       0.00       0.00       0.00       0.00       0.00
Propagators        : #Propagate   #ResProp    Cutoffs    DomReds
  dualfix          :          2          0          0          0
  genvbounds       :          0          0          0          0
  obbt             :          0          0          0          0
  probing          :          0          0          0          0
  pseudoobj        :   13439347          0       4598         81
  redcost          :    4584184          0         39     530725
  rootredcost      :          8          0          0          1
  vbounds          :   14787266       3593          9      49457
Propagator Timings :  TotalTime  SetupTime   Presolve  Propagate    ResProp    SB-Prop
  dualfix          :       0.00       0.00       0.00       0.00       0.00       0.00
  genvbounds       :       1.85       0.00       0.00       1.84       0.00       0.01
  obbt             :       0.00       0.00       0.00       0.00       0.00       0.00
  probing          :       0.03       0.00       0.03       0.00       0.00       0.00
  pseudoobj        :       3.86       0.00       0.00       3.86       0.00       0.00
  redcost          :      21.37       0.00       0.00      21.37       0.00       0.00
  rootredcost      :       2.02       0.00       0.00       2.02       0.00       0.00
  vbounds          :       4.38       0.00       0.00       4.38       0.00       0.00
Conflict Analysis  :       Time      Calls    Success    DomReds  Conflicts   Literals    Reconvs ReconvLits   LP Iters
  propagation      :       4.65      99318      98972          -     982212       35.0       5234       44.2          -
  infeasible LP    :      13.20      84753      80942          -    1267302       37.1        122       13.6          0
  bound exceed. LP :       0.00          0          0          -          0        0.0          0        0.0          0
  strong branching :       0.00          0          0          -          0        0.0          0        0.0          0
  pseudo solution  :       0.00          0          0          -          0        0.0          0        0.0          -
  applied globally :       4.55          -          -          0     341136       19.7          -          -          -
  applied locally  :          -          -          -          0       4338       33.1          -          -          -
Separators         :   ExecTime  SetupTime      Calls    Cutoffs    DomReds       Cuts    Applied      Conss
  cut pool         :       0.00                    84          -          -       1131          -          -    (maximal pool size: 697)
  cgmip            :       0.00       0.00          0          0          0          0          0          0
  clique           :       0.02       0.00         85          0          0         34         29          0
  closecuts        :       0.00       0.00          0          0          0          0          0          0
  cmir             :       0.01       0.00         10          0          0        169        134          0
  disjunctive      :       0.00       0.00          0          0          0          0          0          0
  eccuts           :       0.00       0.00          0          0          0          0          0          0
  flowcover        :       0.15       0.00         15          0          0        307         23          0
  gomory           :       0.03       0.00         10          0          0          8          8          0
  impliedbounds    :       0.00       0.00         85          0          0        621        146          0
  intobj           :       0.00       0.00          0          0          0          0          0          0
  mcf              :       0.00       0.00          1          0          0          0          0          0
  oddcycle         :       0.00       0.00          0          0          0          0          0          0
  rapidlearning    :       0.00       0.00          0          0          0          0          0          0
  strongcg         :       0.08       0.00         20          0          0         27          5          0
  zerohalf         :       0.00       0.00          0          0          0          0          0          0
Pricers            :   ExecTime  SetupTime      Calls       Vars
  problem variables:       0.00          -          0          0
Branching Rules    :   ExecTime  SetupTime   BranchLP  BranchExt   BranchPS    Cutoffs    DomReds       Cuts      Conss   Children
  allfullstrong    :       0.00       0.00          0          0          0          0          0          0          0          0
  cloud            :       0.00       0.00          0          0          0          0          0          0          0          0
  distribution     :       0.00       0.00          0          0          0          0          0          0          0          0
  fullstrong       :       0.00       0.00          0          0          0          0          0          0          0          0
  inference        :       0.00       0.00          0          0          1          0          0          0          0          2
  leastinf         :       0.00       0.00          0          0          0          0          0          0          0          0
  mostinf          :       0.00       0.00          0          0          0          0          0          0          0          0
  multaggr         :       0.00       0.00          0          0          0          0          0          0          0          0
  nodereopt        :       0.00       0.00          0          0          0          0          0          0          0          0
  pscost           :       0.00       0.00          0          0          0          0          0          0          0          0
  random           :       0.00       0.00          0          0          0          0          0          0          0          0
  relpscost        :      18.11       0.00    2100112          0          0          0      53878          0       -578    4190710
Primal Heuristics  :   ExecTime  SetupTime      Calls      Found       Best
  LP solutions     :       0.00          -          -          7          -
  pseudo solutions :       0.00          -          -          0          -
  strong branching :       0.00          -          -          0          -
  SpaGreedy        :     315.60       0.00     298999          2          1
  actconsdiving    :       0.00       0.00          0          0          0
  bound            :       0.00       0.00          0          0          0
  clique           :       0.00       0.00          0          0          0
  coefdiving       :      29.43       0.00       9653          0          0
  crossover        :       0.95       0.00          5          0          0
  dins             :       0.00       0.00          0          0          0
  distributiondivin:      58.03       0.00       9652          0          0
  dualval          :       0.00       0.00          0          0          0
  feaspump         :      18.58       0.00       1901          0          0
  fixandinfer      :       0.00       0.00          0          0          0
  fracdiving       :      30.47       0.00       9653          0          0
  guideddiving     :      28.95       0.00       9653          0          0
  indicator        :       0.42       0.00          0          0          0
  intdiving        :       0.00       0.00          0          0          0
  intshifting      :       0.66       0.00        228          0          0
  linesearchdiving :      28.08       0.00       9652          0          0
  localbranching   :       0.00       0.00          0          0          0
  mutation         :       0.00       0.00          0          0          0
  nlpdiving        :       0.08       0.00          0          0          0
  objpscostdiving  :      18.06       0.00       2596          0          0
  octane           :       0.00       0.00          0          0          0
  ofins            :       0.00       0.00          0          0          0
  oneopt           :       0.68       0.00          7          0          0
  proximity        :       0.00       0.00          0          0          0
  pscostdiving     :      28.91       0.00       9653          0          0
  randrounding     :       1.74       0.00     163240          0          0
  rens             :       0.31       0.00          1          0          0
  reoptsols        :       0.00       0.00          0          0          0
  rins             :       4.42       0.00        102          0          0
  rootsoldiving    :      20.05       0.00       3374          0          0
  rounding         :       0.94       0.00      20286          0          0
  shiftandpropagate:       0.00       0.00          0          0          0
  shifting         :       1.53       0.00       5901          0          0
  simplerounding   :       0.45       0.00          0          0          0
  subnlp           :       0.42       0.00          0          0          0
  trivial          :       0.00       0.00          2          0          0
  trivialnegation  :       0.00       0.00          0          0          0
  trysol           :       0.67       0.00          0          0          0
  twoopt           :       0.00       0.00          0          0          0
  undercover       :       0.00       0.00          1          0          0
  vbounds          :       0.00       0.00          0          0          0
  veclendiving     :      31.64       0.00       9652          0          0
  zeroobj          :       0.00       0.00          0          0          0
  zirounding       :       0.74       0.00       1000          0          0
  other solutions  :          -          -          -          0          -
Diving Statistics  :      Calls      Nodes   LP Iters Backtracks   MinDepth   MaxDepth   AvgDepth  NLeafSols  MinSolDpt  MaxSolDpt  AvgSolDpt
  actconsdiving    :          0          -          -          -          -          -          -          -          -          -          -
  coefdiving       :       9653      71312     689661      13229         17         41       27.9          -          -          -          -
  distributiondivin:       9652      61535     691382      14127         17         37       26.9          -          -          -          -
  fracdiving       :       9653      71776     779445      16119         16         49       27.7          -          -          -          -
  guideddiving     :       9653      75309     786862      14137         18         49       28.5          -          -          -          -
  linesearchdiving :       9652      62472     740301      15666         16         38       26.7          -          -          -          -
  pscostdiving     :       9653      80138     746577      12799         17         50       28.9          -          -          -          -
  veclendiving     :       9652      71904     695104      18902         17         37       27.4          -          -          -          -
LP                 :       Time      Calls Iterations  Iter/call   Iter/sec  Time-0-It Calls-0-It
  primal LP        :       0.00         13          0       0.00          -       0.00         13
  dual LP          :    1514.14    4288844   63531534      16.93   41958.82      50.53     535826
  lex dual LP      :       0.00          0          0       0.00          -
  barrier LP       :       0.00          0          0       0.00          -       0.00          0
  diving/probing LP:     163.93     272540    7157682      26.26   43663.04
  strong branching :       6.09       6454     216846      33.60   35606.90
    (at root node) :          -         22       1742      79.18          -
  conflict analysis:       0.00          0          0       0.00          -
B&B Tree           :
  number of runs   :          1
  nodes            :    4018285 (2095356 internal, 1922929 leaves)
  nodes (total)    :    4018285 (2095356 internal, 1922929 leaves)
  nodes left       :     166022
  max depth        :         37
  max depth (total):         37
  backtracks       :    1054126 (26.2%)
  delayed cutoffs  :       6330
  repropagations   :     140997 (2829270 domain reductions, 5245 cutoffs)
  avg switch length:       5.94
  switching time   :     558.64
Root Node          :
  First LP value   : +3.00000000000000e+00
  First LP Iters   :        371
  First LP Time    :       0.00
  Final Dual Bound : +7.04002765109450e-03
  Final Root Iters :       3281
Solution           :
  Solutions found  :          9 (8 improvements)
  First Solution   : +7.75187147999977e-04   (in run 1, after 1 nodes, 0.05 seconds, depth 0, found by <SpaGreedy>)
  Gap First Sol.   :   infinite
  Gap Last Sol.    :      66.69 %
  Primal Bound     : +8.55577290999542e-04   (in run 1, after 295916 nodes, 261.70 seconds, depth 33, found by <relaxation>)
  Dual Bound       : +1.19242048426651e-03
  Gap              :      39.37 %
  Avg. Gap         :      40.27 % (144977.60 primal-dual integral)
